%Mem=16000MB
%NProcShared=4
%chk=ZETA_2__DFTqc_theozyme_TSopt_Gaussian
# B3LYP EmpiricalDispersion=GD3BJ genECP opt=(modredundant,maxcycle=450) scf=xqc SCRF=(CPCM,solvent=water)

asd

1 1
30      -0.439760000     -0.179608000      0.472979000
8       -1.228828000      0.274978000     -1.371979000
6       -0.841206000     -1.309137000     -2.063715000
8       -0.476121000     -1.974721000     -1.063837000
8        0.138470000     -0.896205000     -3.025437000
1       -1.093401000      1.846504000     -1.744201000
6        1.364737000     -0.534901000     -2.524277000
6        1.767652424      0.795996716     -2.520150912
6        2.205824157     -1.541215057     -2.023624116
6        3.051395773      1.102038814     -2.078994951
6        3.470953653     -1.212717901     -1.562097187
6        3.938562200      0.116056298     -1.608882567
1        1.120029801      1.574228130     -2.899050160
1        1.860430193     -2.568234987     -2.024995003
1        4.119312159     -1.994526277     -1.182554951
6       -2.099006000     -1.658811000     -2.860008000
1       -2.215358000     -0.936466000     -3.671128000
1       -1.896555000     -2.636234000     -3.315453000
7       -0.082740000      1.779574000      1.091014000
6       -0.907288000      2.544752000      1.792972000
6        0.997460000      2.573069000      0.740729000
6        0.822958000      3.838278000      1.239008000
7       -0.395505000      3.792355000      1.900436000
1       -1.850422000      2.239079000      2.217599000
1       -0.827925000      4.560728000      2.396794000
1        1.810218000      2.181843000      0.150589000
7        1.218585000     -1.047382000      1.255149000
6        1.593634000     -2.308351000      1.078621000
6        2.178883000     -0.448884000      2.056595000
6        3.150150000     -1.365649000      2.369335000
7        2.745998000     -2.536150000      1.743516000
1        1.077275000     -3.029733000      0.467684000
1        3.276680000     -3.397228000      1.712399000
1        2.105034000      0.587433000      2.345939000
7       -2.089976000     -0.662751000      1.565711000
6       -2.196241000     -1.663304000      2.430284000
6       -3.319213000     -0.020820000      1.535804000
6       -4.177878000     -0.644820000      2.403374000
7       -3.441040000     -1.680281000      2.955242000
1       -1.417455000     -2.363950000      2.688895000
1       -3.778048000     -2.346816000      3.637654000
1       -3.499880000      0.818376000      0.880776000
1       -2.193997000      0.326275000     -1.224111000
8       -3.116571000      2.357229000     -0.752930000
8       -1.185767000      2.851544000     -1.801777000
6       -2.325075000      3.183081000     -1.195996000
6       -2.524150000      4.674389000     -1.105184000
1       -3.502055000      4.897452000     -0.677917000
1       -1.739963000      5.105662000     -0.473926000
1       -2.433954000      5.128811000     -2.096545000
8        3.423073160      2.415710872     -2.162263438
6        4.713006884      2.831874656     -1.885661456
8        4.972948200      4.003866323     -2.104987567
6        5.625466728      1.831071037     -1.379558287
1        6.622499517      2.182453501     -1.141056821
6        5.279400635      0.523030599     -1.236937245
6        6.264643993     -0.494633054     -0.739648231
1        6.440793504     -1.266674147     -1.498281856
1        7.220828371     -0.027202656     -0.495116418
1        5.885484799     -1.001960943      0.154796496
6       -3.346738000     -1.718134000     -2.013233000
6       -4.324476000     -0.721124000     -2.123281000
6       -3.546043000     -2.758849000     -1.094795000
6       -5.484875000     -0.768329000     -1.346124000
6       -4.701914000     -2.807634000     -0.317403000
6       -5.678783000     -1.815952000     -0.446690000
1       -4.179416000      0.094087000     -2.827779000
1       -2.787654000     -3.528456000     -0.994229000
1       -6.235051000      0.010502000     -1.448892000
1       -4.842965000     -3.620246000      0.389549000
1       -6.583059000     -1.859845000      0.152694000
6       -5.600408000     -0.379373000      2.757317000
1       -6.223255000     -1.265219000      2.592012000
1       -5.707409000     -0.085225000      3.807949000
1       -5.988717000      0.428924000      2.133388000
6        1.661332000      5.067815000      1.152540000
1        1.939365000      5.436604000      2.146510000
1        2.579152000      4.847882000      0.601481000
1        1.135506000      5.876148000      0.631036000
6        4.388737000     -1.270610000      3.194869000
1        4.288967000     -1.833212000      4.130780000
1        5.253998000     -1.668149000      2.654997000
1        4.585838000     -0.225582000      3.445650000

B 2 3 F

C H N O
6-31G(d)
****
Zn 0
SDD
****

Zn 0
SDD

--Link1--
%Mem=16000MB
%NProcShared=4
%chk=ZETA_2__DFTqc_theozyme_TSopt_Gaussian
# B3LYP EmpiricalDispersion=GD3BJ genECP opt=(TS,calcfc,noeigentest,modredundant) scf=xqc SCRF=(CPCM,solvent=water) freq=noraman guess=read geom=allcheck

B 2 3 A

C H N O
6-31G(d)
****
Zn 0
SDD
****

Zn 0
SDD


